NAME: I9445-n20-k3
COMMENT : (Fake et al, No of trucks: 3, Optimal value: )
TYPE : CVRP
DIMENSION : 20
EDGE_WEIGHT_TYPE : EUC_2D
CAPACITY : 38
NODE_COORD_SECTION
1 398 258
2 332 877
3 615 358
4 434 871
5 800 544
6 386 998
7 779 750
8 418 577
9 676 778
10 19 232
11 104 136
12 376 937
13 590 21
14 883 819
15 774 36
16 946 718
17 20 684
18 416 783
19 294 139
20 774 634
DEMAND_SECTION
1 0
2 4
3 7
4 7
5 1
6 7
7 1
8 5
9 4
10 5
11 4
12 8
13 9
14 9
15 7
16 9
17 3
18 4
19 9
20 1
DEPOT_SECTION
 1
 -1
 EOF 